Gurobi Optimizer version 9.1.2 build v9.1.2rc0 (linux64)
Thread count: 36 physical cores, 72 logical processors, using up to 32 threads
Optimize a model with 12 rows, 57 columns and 590 nonzeros
Model fingerprint: 0xf32eec78
Model has 47 quadratic constraints
Coefficient statistics:
  Matrix range     [2e-05, 3e+00]
  QMatrix range    [1e+00, 1e+00]
  QLMatrix range   [1e+00, 1e+00]
  Objective range  [8e-03, 7e-01]
  Bounds range     [1e+00, 1e+00]
  RHS range        [1e+00, 1e+00]
Presolve removed 9 rows and 0 columns

Continuous model is non-convex -- solving as a MIP.

Presolve removed 9 rows and 0 columns
Presolve time: 0.00s
Presolved: 189 rows, 57 columns, 443 nonzeros
Presolved model has 47 bilinear constraint(s)
Variable types: 57 continuous, 0 integer (0 binary)

Root relaxation: objective -1.743721e+00, 44 iterations, 0.00 seconds

    Nodes    |    Current Node    |     Objective Bounds      |     Work
 Expl Unexpl |  Obj  Depth IntInf | Incumbent    BestBd   Gap | It/Node Time

     0     0   -1.74372    0   38          -   -1.74372      -     -    0s
H    0     0                       0.6147548   -1.74372   384%     -    0s
     0     0   -1.64739    0    1    0.61475   -1.64739   368%     -    0s
H    0     0                      -1.6450460   -1.64739  0.14%     -    0s
     0     0     cutoff    0        -1.64505   -1.64505  0.00%     -    0s

Cutting planes:
  RLT: 25
  BQP: 3

Explored 1 nodes (76 simplex iterations) in 0.01 seconds
Thread count was 32 (of 72 available processors)

Solution count 2: -1.64505 0.614755 
No other solutions better than -1.64505

Optimal solution found (tolerance 1.00e-04)
Best objective -1.645045978473e+00, best bound -1.645045978473e+00, gap 0.0000%

User-callback calls 78, time in user-callback 0.00 sec
Gurobi Optimizer version 9.1.2 build v9.1.2rc0 (linux64)
Thread count: 36 physical cores, 72 logical processors, using up to 32 threads
Optimize a model with 24 rows, 125 columns and 2580 nonzeros
Model fingerprint: 0x0cf837fb
Model has 105 quadratic constraints
Coefficient statistics:
  Matrix range     [6e-06, 5e+01]
  QMatrix range    [1e+00, 1e+00]
  QLMatrix range   [1e+00, 1e+00]
  Objective range  [8e-03, 9e-01]
  Bounds range     [1e+00, 1e+00]
  RHS range        [1e+00, 1e+00]
Presolve removed 10 rows and 0 columns

Continuous model is non-convex -- solving as a MIP.

Presolve removed 10 rows and 0 columns
Presolve time: 0.00s
Presolved: 429 rows, 125 columns, 2142 nonzeros
Presolved model has 105 bilinear constraint(s)
Variable types: 125 continuous, 0 integer (0 binary)

Root relaxation: objective -3.991417e+00, 145 iterations, 0.00 seconds

    Nodes    |    Current Node    |     Objective Bounds      |     Work
 Expl Unexpl |  Obj  Depth IntInf | Incumbent    BestBd   Gap | It/Node Time

     0     0   -3.99142    0   75          -   -3.99142      -     -    0s
H    0     0                       0.1264051   -3.99142  3258%     -    0s
     0     0   -3.28593    0   95    0.12641   -3.28593  2700%     -    0s
H    0     0                      -0.9079573   -3.28593   262%     -    0s
     0     0   -3.27319    0   84   -0.90796   -3.27319   261%     -    0s
     0     0   -3.05989    0   67   -0.90796   -3.05989   237%     -    0s
H    0     0                      -1.5252453   -3.05989   101%     -    0s
     0     0   -3.05291    0   67   -1.52525   -3.05291   100%     -    0s
     0     0   -3.02507    0   85   -1.52525   -3.02507  98.3%     -    0s
     0     0   -3.02466    0   85   -1.52525   -3.02466  98.3%     -    0s
     0     0   -3.01831    0   84   -1.52525   -3.01831  97.9%     -    0s
     0     0   -3.01720    0   84   -1.52525   -3.01720  97.8%     -    0s
     0     0   -3.01622    0   84   -1.52525   -3.01622  97.8%     -    0s
     0     0   -3.01230    0   87   -1.52525   -3.01230  97.5%     -    0s
     0     0   -3.01085    0   84   -1.52525   -3.01085  97.4%     -    0s
     0     0   -3.01052    0   88   -1.52525   -3.01052  97.4%     -    0s
     0     0   -3.01046    0   78   -1.52525   -3.01046  97.4%     -    0s
     0     0   -3.01045    0   78   -1.52525   -3.01045  97.4%     -    0s
H    0     0                      -1.7154378   -3.01045  75.5%     -    0s
H    0     0                      -2.0764036   -3.01045  45.0%     -    0s
H    0     0                      -2.1175888   -3.01045  42.2%     -    0s
H    0     0                      -2.3230815   -3.01045  29.6%     -    0s
H    0     0                      -2.4239660   -3.01045  24.2%     -    0s
H    0     0                      -2.4602037   -3.01045  22.4%     -    0s
     0     2   -3.01045    0   78   -2.46020   -3.01045  22.4%     -    0s
*  417    54              15      -2.4602291   -2.59721  5.57%  24.8    0s
*  499   105              15      -2.4602365   -2.59721  5.57%  23.0    0s
*  548   189              20      -2.4625076   -2.59721  5.47%  21.7    0s
*  549   189              20      -2.4625083   -2.59721  5.47%  21.6    0s
*  677   215              20      -2.4631522   -2.59721  5.44%  18.9    0s
*  699   215              18      -2.4644333   -2.59721  5.39%  18.6    0s
*  744   215              18      -2.4698858   -2.59721  5.16%  17.7    0s
*  764   247              22      -2.4711760   -2.59721  5.10%  17.3    0s
*  788   247              22      -2.5075941   -2.59721  3.57%  16.9    0s
*  975   112              17      -2.5105259   -2.52659  0.64%  14.7    0s
* 1114    11              14      -2.5108867   -2.52659  0.63%  13.2    0s
* 1144    11              15      -2.5108949   -2.51089  0.00%  12.9    0s

Cutting planes:
  RLT: 44
  BQP: 4
  PSD: 5

Explored 1214 nodes (15189 simplex iterations) in 0.48 seconds
Thread count was 32 (of 72 available processors)

Solution count 10: -2.51089 -2.51089 -2.51053 ... -2.46251
No other solutions better than -2.51089

Optimal solution found (tolerance 1.00e-04)
Best objective -2.510894933146e+00, best bound -2.510894933146e+00, gap 0.0000%

User-callback calls 2704, time in user-callback 0.00 sec



objective value: -2.5108949331458565
objective bound: -2.5108949331458565
x_opt: [0.0, 0.0, 1.0, 0.0, 1.0, 0.6715546827890259, 1.0, 1.0, 1.0, 0.0, 0.0, 0.1978211016134398, 0.0, 0.0, 0.0, 0.4940541717952618, 0.0, 0.0, 0.005517301964111103, 0.0]
GUROBI solution time: 0.47602200508117676




